CMD:
./solvers/bin/cadical --plain --no-reduce -t 1600 ./data/cnfs//cal97/cal97.16.cnf

c --- [ banner ] -------------------------------------------------------------
c 
c CaDiCaL SAT Solver
c Copyright (c) 2016-2024
c A. Biere, M. Fleury, N. Froleyks, K. Fazekas, F. Pollitt, T. Faller
c JKU Linz, University of Freiburg, TU Wien
c 
c Version 2.1.3 5296d3d2a9bf48c154ab2acb5e44625776d821bf
c g++ (Gentoo 12.3.1_p20230526 p2) 12.3.1 20230526 -Wall -Wextra -O3 -DNDEBUG
c Sat Aug 9 07:26:21 PDT 2025 Linux cedar2.int.cedar.computecanada.ca 5.14.0-362.24.2.el9_3.x86_64 x86_64
c 
c --- [ limit ] --------------------------------------------------------------
c 
c setting time limit to 1600 seconds real time (due to '-t 1600')
c 
c --- [ parsing input ] ------------------------------------------------------
c 
c reading DIMACS file from './data/cnfs//cal97/cal97.16.cnf'
c opening file to read './data/cnfs//cal97/cal97.16.cnf'
c found 'p cnf 474101 1348801' header
c parsed 1348801 clauses in 0.24 seconds process time
c 
c --- [ options ] ------------------------------------------------------------
c 
c   --compact=false                (different from default 'true')
c   --decompose=false              (different from default 'true')
c   --deduplicate=false            (different from default 'true')
c   --elim=false                   (different from default 'true')
c   --probe=false                  (different from default 'true')
c   --reduce=false                 (different from default 'true')
c   --subsume=false                (different from default 'true')
c   --ternary=false                (different from default 'true')
c   --transred=false               (different from default 'true')
c   --vivify=false                 (different from default 'true')
c 
c --- [ solving ] ------------------------------------------------------------
c 
c time measured in process time since initialization
c 
c  seconds   reductions  redundant   irredundant
c          MB    restarts       trail        variables
c           level   conflicts       glue           remaining
c 
c *  0.24 205  0 0   0    0    0  0% 0 1258567 453067 96%
c {  0.25 205  0 0   0    0    0  0% 0 1258567 453067 96%
c i  0.27 206 792 0   3   61   60  8% 3 1258567 453066 96%
c i  0.27 206 677 0   3   72   70  8% 3 1258567 453065 96%
c i  0.27 206 311 0   6  184  172  7% 3 1258567 453064 96%
c i  0.27 206 288 0  10  199  186  7% 3 1258567 453063 96%
c i  0.27 206 255 0  15  236  217  6% 3 1258567 453062 96%
c i  0.28 206 193 0  26  335  308  6% 4 1258567 453061 96%
c i  0.28 206 192 0  27  339  311  6% 4 1258567 453059 96%
c }  0.72 211 5480 0  52 1000  925 29% 3 1258567 453059 96%
c [  0.72 211  0 0  52 1000  925  0% 0 1258567 453059 96%
c O  0.74 211 1186 0  52 1003  928 41% 2 1258567 453059 96%
c ]  1.86 212 7855 0  53 3000 2463 53% 9 1258567 453059 96%
c {  1.86 212 5480 0  53 3000 2463 29% 3 1258567 453059 96%
c F  1.89 212 5459 0  55 3004 2467 29% 3 1258567 453059 96%
c i  2.30 213 4449 0 101 3239 2681 28% 3 1258567 453058 96%
c i  2.86 213 3582 0 168 3553 2963 26% 3 1258567 453057 96%
c i  2.86 213 3366 0 194 3652 3055 25% 3 1258567 453056 96%
c i  2.99 213 2954 0 238 3878 3271 23% 4 1258567 453055 96%
c i  2.99 213 2935 0 240 3890 3282 23% 4 1258567 453054 96%
c 
c  seconds     reductions  redundant   irredundant
c          MB      restarts       trail        variables
c            level    conflicts       glue           remaining
c 
c i  3.00 213 2788 0 257 3988 3374 22% 4 1258567 453053 96%
c i  3.21 213 2153 0 305 4605 3934 21% 4 1258567 453052 96%
c i  3.27 213 1902 0 357 4950 4242 19% 4 1258567 453051 96%
c i  3.28 213 1801 0 385 5111 4394 18% 4 1258567 453049 96%
c i  3.42 213 1623 0 407 5476 4719 18% 4 1258567 453046 96%
c i  3.47 213 1519 0 451 5717 4937 17% 4 1258567 453045 96%
c #  3.66 213 1413 0 487 6005 5192 16% 4 1258567 453045 96%
c i  3.95 214 1305 0 545 6348 5521 16% 4 1258567 453042 96%
c i  4.04 214 1234 0 549 6662 5791 17% 4 1258567 453041 96%
c }  4.11 214 1152 0 603 7002 6108 16% 4 1258567 453041 96%
c [  4.11 214 7855 0 603 7002 6108 53% 9 1258567 453041 96%
c i  4.15 214 7015 0 604 7247 6326 50% 9 1258567 453040 96%
c i  4.19 214 6881 0 604 7312 6379 51% 9 1258567 453039 96%
c i  4.21 214 6872 0 604 7338 6398 51% 9 1258567 453038 96%
c i  4.23 214 6883 0 604 7352 6407 51% 8 1258567 453037 96%
c i  4.24 214 6907 0 604 7366 6419 51% 8 1258567 453036 96%
c i  4.24 214 6925 0 604 7374 6424 51% 8 1258567 453035 96%
c i  4.25 214 6967 0 604 7389 6433 52% 8 1258567 453034 96%
c i  4.35 214 6992 0 604 7396 6439 52% 8 1258567 453017 96%
c i  4.35 214 7018 0 604 7401 6442 52% 8 1258567 453016 96%
c 
c  seconds     reductions  redundant   irredundant
c          MB      restarts       trail        variables
c            level    conflicts       glue           remaining
c 
c i  5.29 214 6886 0 604 7584 6611 52% 8 1258567 453010 96%
c i  5.59 214 4879 0 604 8663 7612 46% 10 1258567 453009 96%
c I  5.70 215 3582 0 605 10008 8864 38% 11 1258567 452998 96%
c i  5.71 215 3317 0 606 10401 9221 35% 11 1258567 452996 96%
... skipped 251 lines ...
c i 515.57 466 90 0 46649 1118303 735523 18% 11 1226640 450968 95%
c i 515.77 466 90 0 46664 1118448 735650 18% 11 1226640 450966 95%
c i 523.54 468 90 0 47337 1125329 741892 18% 11 1226640 450962 95%
c W 525.61 483 91 0 47375 1128094 731117 19% 11 1226339 450962 95%
c i 541.25 484 92 0 48389 1145035 746533 19% 11 1226339 450959 95%
c i 544.22 484 93 0 48616 1148378 749648 19% 11 1226339 450957 95%
c F 578.23 484 95 0 51191 1176095 775179 20% 11 1226339 450956 95%
c i 582.05 484 94 0 51259 1182366 780697 20% 11 1226339 450951 95%
c i 618.42 487 97 0 53616 1214448 809817 20% 11 1226339 450949 95%
c B 632.22 487 100 0 54503 1225099 819505 21% 11 1226339 450948 95%
c i 663.47 489 98 0 56715 1249559 841675 21% 11 1226339 450945 95%
c W 698.85 515 103 0 59063 1275103 865124 21% 12 1226278 450945 95%
c i 744.11 518 99 0 61545 1319872 905511 21% 11 1226278 450942 95%
c # 754.59 518 99 0 62286 1326104 911204 21% 11 1226278 450942 95%
c i 769.56 518 98 0 63520 1333917 918354 21% 12 1226278 450939 95%
c 
c  seconds    reductions        redundant     irredundant
c           MB     restarts             trail         variables
c            level       conflicts          glue            remaining
c 
c B 820.19 521 99 0 66497 1378108 959330 22% 12 1226278 450939 95%
c i 824.80 521 99 0 66847 1380383 961418 22% 12 1226278 450936 95%
c i 824.80 521 99 0 66847 1380428 961455 22% 12 1226278 450934 95%
c i 824.81 521 99 0 66847 1380433 961458 22% 12 1226278 450933 95%
c W 900.82 559 98 0 71884 1431109 1007597 21% 12 1226235 450932 95%
c F 969.50 562 98 0 75809 1485110 1057301 23% 12 1226235 450932 95%
c i 1002.83 562 97 0 77985 1504346 1074935 22% 12 1226235 450929 95%
c B 1048.38 563 92 0 80649 1540113 1107530 22% 12 1226235 450929 95%
c i 1090.39 572 92 0 83343 1567703 1132747 22% 12 1226235 450928 95%
c W 1133.11 603 94 0 85776 1596114 1158607 22% 12 1226222 450928 95%
c i 1215.88 606 86 0 91106 1651128 1208033 21% 13 1226222 450927 95%
c # 1218.65 606 86 0 91245 1653115 1209865 21% 13 1226222 450927 95%
c B 1304.26 607 81 0 95672 1711117 1262755 21% 13 1226222 450927 95%
c W 1391.41 650 82 0 100739 1770119 1316287 20% 13 1226219 450927 95%
c F 1455.90 653 72 0 104286 1830121 1372215 22% 12 1226219 450927 95%
c i 1461.71 653 72 0 104702 1834330 1376048 21% 12 1226219 450926 95%
c i 1540.12 653 71 0 109546 1876828 1413962 20% 13 1226219 450924 95%
c B 1565.86 655 73 0 111044 1891123 1427101 21% 13 1226219 450924 95%
c i 1580.51 657 74 0 111918 1899459 1434786 21% 13 1226219 450921 95%
c } 1589.83 661 75 0 112525 1902975 1438011 21% 13 1226219 450921 95%
c 
c   seconds    reductions          redundant     irredundant
c            MB     restarts               trail         variables
c             level        conflicts           glue            remaining
c 
c ? 1589.83 661 75 0 112525 1902975 1438011 21% 13 1226219 450921 95%
c 
c --- [ result ] -------------------------------------------------------------
c 
c UNKNOWN
c 
c --- [ run-time profiling ] -------------------------------------------------
c 
c process time taken by individual solving procedures
c (percentage relative to process time for solving)
c 
c      1589.58  100.00% search
c      1323.26   83.25% unstable
c       257.16   16.18% stable
c         9.15    0.58% walk
c         0.24    0.02% parse
c         0.01    0.00% lucky
c         0.00    0.00% simplify
c   =================================
c      1589.58   99.98% solve
c 
c last line shows process time for solving
c (percentage relative to total process time)
c 
c --- [ statistics ] ---------------------------------------------------------
c 
c chronological:            521297        27.39 %  of conflicts
c conflicts:               1902975      1197.15    per second
c decisions:              11418692      7183.44    per second
c fixed:                     23179         4.89 %  of all variables
c learned:                 1844604        96.93 %  per conflict
c learned_lits:          145040532       100.00 %  learned literals
c minimized:                     0         0.00 %  learned literals
c shrunken:               43200986        29.79 %  learned literals
c minishrunken:           31974399        22.05 %  learned literals
c otfs:                       5956         0.31 %  of conflict
c propagations:        11040689428         6.95 M  per second
c rephased:                     61     31196.31    interval
c restarts:                 112525        16.91    interval
c stabilizing:                   5        35.83 %  of conflicts
c subsumed:                 213846         6.89 %  of all clauses
c strengthened:               5660         0.18 %  of all clauses
c walked:                       19    100156.58    interval
c 
c seconds are measured in process time for solving
c 
c --- [ resources ] ----------------------------------------------------------
c 
c total process time since initialization:      1589.83    seconds
c total real time since initialization:         1600.00    seconds
c maximum resident set size of process:          899.61    MB
c 
c --- [ shutting down ] ------------------------------------------------------
c 
c exit 0
